N = 3;
Capacity = 4;
ItemsPerCustomer = [4, 8, 7];
maxItemsPerCustomer = 8;
binCapacity = 50;
SizesOfItems = [|
  33, 32, 26, 15, 0, 0, 0, 0
| 36, 34, 30, 29, 25, 19, 18, 17
| 40, 38, 26, 17, 17, 16, 10, 0
|];
Distance = [|
  0, 37, 40, 26
| 37, 0, 76, 11
| 40, 76, 0, 66
| 26, 11, 66, 0
|];
